NAME : eil51-2.10_500.tour
COMMENT : Cost = 10_500
COMMENT : Found by LKH-3 [Keld Helsgaun] Sun Jun  8 20:42:21 2025
TYPE : TOUR
DIMENSION : 52
TOUR_SECTION
37
17
19
41
18
20
32
42
21
46
50
40
36
51
1
35
14
12
15
16
13
39
7
6
8
3
2
4
5
9
10
11
43
47
38
52
33
44
34
45
48
49
26
27
29
25
22
30
23
28
24
31
-1
EOF
